c *********************************
c * Circuit generated by BenCGen
c *
c * Parity_100
c *
c * Ports with 1 gate(s): 1
c * Ports with 2 gate(s): 100
c * Total gates: 101
c *********************************
p cnf 201 401
1 103 0
-1 -103 0
1 -102 0
103 -102 0
-1 -103 102 0
1 2 -104 0
-1 2 104 0
1 -2 104 0
-1 -2 -104 0
3 4 -105 0
-3 4 105 0
3 -4 105 0
-3 -4 -105 0
5 6 -106 0
-5 6 106 0
5 -6 106 0
-5 -6 -106 0
7 8 -107 0
-7 8 107 0
7 -8 107 0
-7 -8 -107 0
9 10 -108 0
-9 10 108 0
9 -10 108 0
-9 -10 -108 0
11 12 -109 0
-11 12 109 0
11 -12 109 0
-11 -12 -109 0
13 14 -110 0
-13 14 110 0
13 -14 110 0
-13 -14 -110 0
15 16 -111 0
-15 16 111 0
15 -16 111 0
-15 -16 -111 0
17 18 -112 0
-17 18 112 0
17 -18 112 0
-17 -18 -112 0
19 20 -113 0
-19 20 113 0
19 -20 113 0
-19 -20 -113 0
21 22 -114 0
-21 22 114 0
21 -22 114 0
-21 -22 -114 0
23 24 -115 0
-23 24 115 0
23 -24 115 0
-23 -24 -115 0
25 26 -116 0
-25 26 116 0
25 -26 116 0
-25 -26 -116 0
27 28 -117 0
-27 28 117 0
27 -28 117 0
-27 -28 -117 0
29 30 -118 0
-29 30 118 0
29 -30 118 0
-29 -30 -118 0
31 32 -119 0
-31 32 119 0
31 -32 119 0
-31 -32 -119 0
33 34 -120 0
-33 34 120 0
33 -34 120 0
-33 -34 -120 0
35 36 -121 0
-35 36 121 0
35 -36 121 0
-35 -36 -121 0
37 38 -122 0
-37 38 122 0
37 -38 122 0
-37 -38 -122 0
39 40 -123 0
-39 40 123 0
39 -40 123 0
-39 -40 -123 0
41 42 -124 0
-41 42 124 0
41 -42 124 0
-41 -42 -124 0
43 44 -125 0
-43 44 125 0
43 -44 125 0
-43 -44 -125 0
45 46 -126 0
-45 46 126 0
45 -46 126 0
-45 -46 -126 0
47 48 -127 0
-47 48 127 0
47 -48 127 0
-47 -48 -127 0
49 50 -128 0
-49 50 128 0
49 -50 128 0
-49 -50 -128 0
51 52 -129 0
-51 52 129 0
51 -52 129 0
-51 -52 -129 0
53 54 -130 0
-53 54 130 0
53 -54 130 0
-53 -54 -130 0
55 56 -131 0
-55 56 131 0
55 -56 131 0
-55 -56 -131 0
57 58 -132 0
-57 58 132 0
57 -58 132 0
-57 -58 -132 0
59 60 -133 0
-59 60 133 0
59 -60 133 0
-59 -60 -133 0
61 62 -134 0
-61 62 134 0
61 -62 134 0
-61 -62 -134 0
63 64 -135 0
-63 64 135 0
63 -64 135 0
-63 -64 -135 0
65 66 -136 0
-65 66 136 0
65 -66 136 0
-65 -66 -136 0
67 68 -137 0
-67 68 137 0
67 -68 137 0
-67 -68 -137 0
69 70 -138 0
-69 70 138 0
69 -70 138 0
-69 -70 -138 0
71 72 -139 0
-71 72 139 0
71 -72 139 0
-71 -72 -139 0
73 74 -140 0
-73 74 140 0
73 -74 140 0
-73 -74 -140 0
75 76 -141 0
-75 76 141 0
75 -76 141 0
-75 -76 -141 0
77 78 -142 0
-77 78 142 0
77 -78 142 0
-77 -78 -142 0
79 80 -143 0
-79 80 143 0
79 -80 143 0
-79 -80 -143 0
81 82 -144 0
-81 82 144 0
81 -82 144 0
-81 -82 -144 0
83 84 -145 0
-83 84 145 0
83 -84 145 0
-83 -84 -145 0
85 86 -146 0
-85 86 146 0
85 -86 146 0
-85 -86 -146 0
87 88 -147 0
-87 88 147 0
87 -88 147 0
-87 -88 -147 0
89 90 -148 0
-89 90 148 0
89 -90 148 0
-89 -90 -148 0
91 92 -149 0
-91 92 149 0
91 -92 149 0
-91 -92 -149 0
93 94 -150 0
-93 94 150 0
93 -94 150 0
-93 -94 -150 0
95 96 -151 0
-95 96 151 0
95 -96 151 0
-95 -96 -151 0
97 98 -152 0
-97 98 152 0
97 -98 152 0
-97 -98 -152 0
99 100 -153 0
-99 100 153 0
99 -100 153 0
-99 -100 -153 0
104 105 -154 0
-104 105 154 0
104 -105 154 0
-104 -105 -154 0
106 107 -155 0
-106 107 155 0
106 -107 155 0
-106 -107 -155 0
108 109 -156 0
-108 109 156 0
108 -109 156 0
-108 -109 -156 0
110 111 -157 0
-110 111 157 0
110 -111 157 0
-110 -111 -157 0
112 113 -158 0
-112 113 158 0
112 -113 158 0
-112 -113 -158 0
114 115 -159 0
-114 115 159 0
114 -115 159 0
-114 -115 -159 0
116 117 -160 0
-116 117 160 0
116 -117 160 0
-116 -117 -160 0
118 119 -161 0
-118 119 161 0
118 -119 161 0
-118 -119 -161 0
120 121 -162 0
-120 121 162 0
120 -121 162 0
-120 -121 -162 0
122 123 -163 0
-122 123 163 0
122 -123 163 0
-122 -123 -163 0
124 125 -164 0
-124 125 164 0
124 -125 164 0
-124 -125 -164 0
126 127 -165 0
-126 127 165 0
126 -127 165 0
-126 -127 -165 0
128 129 -166 0
-128 129 166 0
128 -129 166 0
-128 -129 -166 0
130 131 -167 0
-130 131 167 0
130 -131 167 0
-130 -131 -167 0
132 133 -168 0
-132 133 168 0
132 -133 168 0
-132 -133 -168 0
134 135 -169 0
-134 135 169 0
134 -135 169 0
-134 -135 -169 0
136 137 -170 0
-136 137 170 0
136 -137 170 0
-136 -137 -170 0
138 139 -171 0
-138 139 171 0
138 -139 171 0
-138 -139 -171 0
140 141 -172 0
-140 141 172 0
140 -141 172 0
-140 -141 -172 0
142 143 -173 0
-142 143 173 0
142 -143 173 0
-142 -143 -173 0
144 145 -174 0
-144 145 174 0
144 -145 174 0
-144 -145 -174 0
146 147 -175 0
-146 147 175 0
146 -147 175 0
-146 -147 -175 0
148 149 -176 0
-148 149 176 0
148 -149 176 0
-148 -149 -176 0
150 151 -177 0
-150 151 177 0
150 -151 177 0
-150 -151 -177 0
152 153 -178 0
-152 153 178 0
152 -153 178 0
-152 -153 -178 0
154 155 -179 0
-154 155 179 0
154 -155 179 0
-154 -155 -179 0
156 157 -180 0
-156 157 180 0
156 -157 180 0
-156 -157 -180 0
158 159 -181 0
-158 159 181 0
158 -159 181 0
-158 -159 -181 0
160 161 -182 0
-160 161 182 0
160 -161 182 0
-160 -161 -182 0
162 163 -183 0
-162 163 183 0
162 -163 183 0
-162 -163 -183 0
164 165 -184 0
-164 165 184 0
164 -165 184 0
-164 -165 -184 0
166 167 -185 0
-166 167 185 0
166 -167 185 0
-166 -167 -185 0
168 169 -186 0
-168 169 186 0
168 -169 186 0
-168 -169 -186 0
170 171 -187 0
-170 171 187 0
170 -171 187 0
-170 -171 -187 0
172 173 -188 0
-172 173 188 0
172 -173 188 0
-172 -173 -188 0
174 175 -189 0
-174 175 189 0
174 -175 189 0
-174 -175 -189 0
176 177 -190 0
-176 177 190 0
176 -177 190 0
-176 -177 -190 0
179 180 -191 0
-179 180 191 0
179 -180 191 0
-179 -180 -191 0
181 182 -192 0
-181 182 192 0
181 -182 192 0
-181 -182 -192 0
183 184 -193 0
-183 184 193 0
183 -184 193 0
-183 -184 -193 0
185 186 -194 0
-185 186 194 0
185 -186 194 0
-185 -186 -194 0
187 188 -195 0
-187 188 195 0
187 -188 195 0
-187 -188 -195 0
189 190 -196 0
-189 190 196 0
189 -190 196 0
-189 -190 -196 0
191 192 -197 0
-191 192 197 0
191 -192 197 0
-191 -192 -197 0
193 194 -198 0
-193 194 198 0
193 -194 198 0
-193 -194 -198 0
195 196 -199 0
-195 196 199 0
195 -196 199 0
-195 -196 -199 0
197 198 -200 0
-197 198 200 0
197 -198 200 0
-197 -198 -200 0
199 178 -201 0
-199 178 201 0
199 -178 201 0
-199 -178 -201 0
200 201 -101 0
-200 201 101 0
200 -201 101 0
-200 -201 -101 0
